RT is False
Default write of storage_offers_DA.csv just to have a file (but constraint should be inactive)
Reading model...
...model read.
creating competitive generators file...
...competitive generators recorded.
Loading data...
.. day-ahead data with real-time VRE data read.
Compiling instance...
...instance created.
Creating Offer Mitigation (model will solve as dispatch if TRUE)...
NOTE: storage offers will not be mitigated
...storage offer mitigation file created
Converting model to MPEC...
...converted
NOTE: initial MIP solve with only storage competitive to get feasible solution
Solving...

Welcome to IBM(R) ILOG(R) CPLEX(R) Interactive Optimizer 12.9.0.0
  with Simplex, Mixed Integer & Barrier Optimizers
5725-A06 5725-A29 5724-Y48 5724-Y49 5724-Y54 5724-Y55 5655-Y21
Copyright IBM Corp. 1988, 2019.  All Rights Reserved.

Type 'help' for a list of available commands.
Type 'help' followed by a command name for more
information on commands.

CPLEX> Logfile 'cplex.log' closed.
Logfile 'C:\Users\llavin\Desktop\test919\logs\tmp2pgp8z2v.cplex.log' open.
CPLEX> New value for parallel optimization mode: -1
CPLEX> New value for mixed integer optimality gap tolerance: 0.01
CPLEX> New value for integrality tolerance: 1e-09
CPLEX> New value for feasibility tolerance: 0.01
CPLEX> New value for deterministic time limit in ticks: 100000
CPLEX> Problem 'C:\Users\llavin\Desktop\test919\logs\tmpo61oi2pb.pyomo.lp' read.
Read time = 0.23 sec. (13.86 ticks)
CPLEX> Problem name         : C:\Users\llavin\Desktop\test919\logs\tmpo61oi2pb.pyomo.lp
Objective sense      : Maximize
Variables            :   53321  [Nneg: 1,  Box: 21806,  Free: 4416,
                                 Binary: 27098]
Objective nonzeros   :    8980
Linear constraints   :  122164  [Less: 40983,  Greater: 58612,  Equal: 22569]
  Nonzeros           :  288505
  RHS nonzeros       :   66982

Variables            : Min LB: -5000.000        Max UB: 1000000.       
Objective nonzeros   : Min   : 0.008333333      Max   : 834.2500       
Linear constraints   :
  Nonzeros           : Min   : 0.008333333      Max   : 1000000.       
  RHS nonzeros       : Min   : 0.008333333      Max   : 1000000.       
CPLEX> CPXPARAM_Parallel                                -1
CPXPARAM_Simplex_Tolerances_Feasibility          0.01
CPXPARAM_DetTimeLimit                            100000
CPXPARAM_MIP_Tolerances_MIPGap                   0.01
CPXPARAM_MIP_Tolerances_Integrality              1.0000000000000001e-09
Tried aggregator 3 times.
MIP Presolve eliminated 88084 rows and 18940 columns.
MIP Presolve added 3378 rows and 0 columns.
MIP Presolve modified 24535 coefficients.
Aggregator did 12885 substitutions.
Reduced MIP has 24573 rows, 20940 columns, and 68807 nonzeros.
Reduced MIP has 8288 binaries, 0 generals, 0 SOSs, and 0 indicators.
Presolve time = 0.30 sec. (171.75 ticks)
Probing fixed 412 vars, tightened 2880 bounds.
Probing time = 1.23 sec. (897.61 ticks)
Tried aggregator 2 times.
MIP Presolve eliminated 932 rows and 833 columns.
MIP Presolve modified 2190 coefficients.
Aggregator did 39 substitutions.
Reduced MIP has 23602 rows, 20068 columns, and 65988 nonzeros.
Reduced MIP has 7872 binaries, 0 generals, 0 SOSs, and 0 indicators.
Presolve time = 0.09 sec. (66.49 ticks)
Probing fixed 0 vars, tightened 1 bounds.
Probing time = 0.05 sec. (19.77 ticks)
Clique table members: 6419.
MIP emphasis: balance optimality and feasibility.
MIP search method: dynamic search.
Parallel mode: opportunistic, using up to 32 threads.
Root relaxation solution time = 0.34 sec. (454.68 ticks)

        Nodes                                         Cuts/
   Node  Left     Objective  IInf  Best Integer    Best Bound    ItCnt     Gap

      0     0        0.0000   620                      0.0000     5577         
*     0+    0                            0.0000        0.0000             0.00%
      0     0        cutoff              0.0000        0.0000     5577    0.00%
Elapsed time = 2.95 sec. (2096.32 ticks, tree = 0.01 MB, solutions = 1)

Root node processing (before b&c):
  Real time             =    2.99 sec. (2098.13 ticks)
Parallel b&c, 32 threads:
  Real time             =    0.00 sec. (0.00 ticks)
  Sync time (average)   =    0.00 sec.
  Wait time (average)   =    0.00 sec.
                          ------------
Total (root+branch&cut) =    2.99 sec. (2098.13 ticks)

Solution pool: 1 solution saved.

MIP - Integer optimal solution:  Objective =  9.0949470177e-11
Solution time =    2.99 sec.  Iterations = 5577  Nodes = 0
Deterministic time = 2098.28 ticks  (702.94 ticks/sec)

CPLEX> Incumbent solution written to file 'C:\Users\llavin\Desktop\test919\logs\tmp00kdik7c.cplex.sol'.
CPLEX> NOTE: no warmstart specified for MIP iteration, default behavior is true
NOTE: resolving with all competitive generators using storage-only solution to warmstart
Solving...

Welcome to IBM(R) ILOG(R) CPLEX(R) Interactive Optimizer 12.9.0.0
  with Simplex, Mixed Integer & Barrier Optimizers
5725-A06 5725-A29 5724-Y48 5724-Y49 5724-Y54 5724-Y55 5655-Y21
Copyright IBM Corp. 1988, 2019.  All Rights Reserved.

Type 'help' for a list of available commands.
Type 'help' followed by a command name for more
information on commands.

CPLEX> Logfile 'cplex.log' closed.
Logfile 'C:\Users\llavin\Desktop\test919\logs\tmpj08y1j03.cplex.log' open.
CPLEX> New value for parallel optimization mode: -1
CPLEX> New value for mixed integer optimality gap tolerance: 0.01
CPLEX> New value for integrality tolerance: 1e-09
CPLEX> New value for feasibility tolerance: 0.01
CPLEX> New value for deterministic time limit in ticks: 100000
CPLEX> Problem 'C:\Users\llavin\Desktop\test919\logs\tmpuob2ks2e.pyomo.lp' read.
Read time = 0.22 sec. (13.88 ticks)
CPLEX> MIP start file 'C:\Users\llavin\Desktop\test919\logs\tmp577nrhsr.cplex.mst' read.
CPLEX> Problem name         : C:\Users\llavin\Desktop\test919\logs\tmpuob2ks2e.pyomo.lp
Objective sense      : Maximize
Variables            :   54041  [Nneg: 1,  Box: 22526,  Free: 4416,
                                 Binary: 27098]
Objective nonzeros   :    9676
Linear constraints   :  122164  [Less: 40983,  Greater: 58612,  Equal: 22569]
  Nonzeros           :  288505
  RHS nonzeros       :   66982

Variables            : Min LB: -5000.000        Max UB: 1000000.       
Objective nonzeros   : Min   : 0.008333333      Max   : 786.9417       
Linear constraints   :
  Nonzeros           : Min   : 0.008333333      Max   : 1000000.       
  RHS nonzeros       : Min   : 0.008333333      Max   : 1000000.       
CPLEX> CPXPARAM_Parallel                                -1
CPXPARAM_Simplex_Tolerances_Feasibility          0.01
CPXPARAM_DetTimeLimit                            100000
CPXPARAM_MIP_Tolerances_MIPGap                   0.01
CPXPARAM_MIP_Tolerances_Integrality              1.0000000000000001e-09
Warning:  No solution found from 1 MIP starts.
Retaining values of one MIP start for possible repair.
Tried aggregator 3 times.
MIP Presolve eliminated 88084 rows and 19660 columns.
MIP Presolve added 3378 rows and 0 columns.
MIP Presolve modified 24535 coefficients.
Aggregator did 12885 substitutions.
Reduced MIP has 24573 rows, 20940 columns, and 68807 nonzeros.
Reduced MIP has 8288 binaries, 0 generals, 0 SOSs, and 0 indicators.
Presolve time = 0.30 sec. (172.11 ticks)
Probing fixed 412 vars, tightened 2880 bounds.
Probing time = 1.22 sec. (897.61 ticks)
Tried aggregator 2 times.
MIP Presolve eliminated 932 rows and 833 columns.
MIP Presolve modified 2190 coefficients.
Aggregator did 39 substitutions.
Reduced MIP has 23602 rows, 20068 columns, and 65988 nonzeros.
Reduced MIP has 7872 binaries, 0 generals, 0 SOSs, and 0 indicators.
Presolve time = 0.11 sec. (66.49 ticks)
Probing fixed 0 vars, tightened 1 bounds.
Probing time = 0.05 sec. (19.77 ticks)
Clique table members: 6419.
MIP emphasis: balance optimality and feasibility.
MIP search method: dynamic search.
Parallel mode: opportunistic, using up to 32 threads.
Root relaxation solution time = 0.27 sec. (224.68 ticks)

        Nodes                                         Cuts/
   Node  Left     Objective  IInf  Best Integer    Best Bound    ItCnt     Gap

      0     0    58539.1176  1646                  58539.1176     5652         
      0     0    56139.5127   712                   Cuts: 526     5909         
      0     0    55957.8419   608                   Cuts: 189     6044         
      0     0    47952.3255   555                    Cuts: 90     6100         
      0     0    47952.3255   530                    Cuts: 62     6143         
      0     0    47952.3255   495                    Cuts: 59     6184         
      0     0    47952.3255   482                    Cuts: 52     6208         
      0     0    47952.3255   479                    Cuts: 32     6223         
      0     0    47952.3255   464                    Cuts: 24     6235         
      0     0    47952.3255   458                    Cuts: 22     6249         
Repair heuristic found nothing.
      0    23    infeasible                       Flowcuts: 4     6369         
Elapsed time = 10.17 sec. (5847.97 ticks, tree = 0.02 MB, solutions = 0)
    525   144    24343.8399   376                  47278.0846     8967         
   1132   179    17974.9159   399                  47278.0846     9680         
   1787   425    infeasible                        47278.0846    16512         
   2827   981    14281.6912   376                  47278.0846    23287         
   4274  1262    19991.9829   348                  47278.0846    24339         
   5763  1722   -39210.7703   311                  47278.0846    24985         
   6891  2424    -8824.0002   287                  47278.0846    25549         
   7689  3937    24366.1915   318                  47278.0846    25890         
*  7965+ 6869                       -39210.7703    47278.0846           220.57%
* 11826  6867      integral     0     7402.0684    47278.0846    28212  538.71%
  12052  4980    29179.6792   409     7402.0684    47278.0846    30335  538.71%
Elapsed time = 26.02 sec. (8797.77 ticks, tree = 36.46 MB, solutions = 10)
* 12377  4796      integral     0    15493.4678    47278.0846    29833  205.15%
* 12793  4309      integral     0    16312.7657    47278.0846    28536  189.82%

Clique cuts applied:  16
Cover cuts applied:  4
Implied bound cuts applied:  20
Flow cuts applied:  379
Mixed integer rounding cuts applied:  41
Gomory fractional cuts applied:  43

Root node processing (before b&c):
  Real time             =    9.00 sec. (5828.88 ticks)
Parallel b&c, 32 threads:
  Real time             =   20.59 sec. (5317.04 ticks)
  Sync time (average)   =    0.53 sec.
  Wait time (average)   =    0.00 sec.
                          ------------
Total (root+branch&cut) =   29.59 sec. (11145.92 ticks)

Solution pool: 11 solutions saved.

MIP - Integer optimal solution:  Objective =  1.6312765677e+04
Solution time =   29.61 sec.  Iterations = 40711  Nodes = 13166
Deterministic time = 11146.07 ticks  (376.44 ticks/sec)

CPLEX> Incumbent solution written to file 'C:\Users\llavin\Desktop\test919\logs\tmpq6sr9e9c.cplex.sol'.
CPLEX> Exporting results... 
